26
3 0 21 0
3 0 20 0
3 0 29 0
3 0 18 0
3 0 17 0
3 0 16 0
3 0 15 0
3 0 14 0
3 0 4 0
3 0 12 0
3 0 19 0
3 0 10 0
3 0 6 0
3 0 9 0
3 0 13 0
3 0 7 0
3 0 8 0
3 0 23 0
3 0 24 0
3 0 33 0
4 0 2 27 0
5 0 26 5 22 0
3 0 11 0
6 0 32 31 28 34 0
5 0 25 35 30 0
5 0 1 3 36 0
